&CONTROL
  calculation = 'scf'
  etot_conv_thr =   1.2000000000d-04
  forc_conv_thr =   1.0000000000d-04
  outdir = './out/'
  prefix = 'aiida'
  pseudo_dir = './pseudo/'
  tprnfor = .true.
  tstress = .true.
  verbosity = 'high'
/
&SYSTEM
  degauss =   1.4699728990d-02
  ecutrho =   3.0400000000d+02
  ecutwfc =   7.6000000000d+01
  ibrav = 0
  nat = 12
  nosym = .false.
  ntyp = 1
  occupations = 'smearing'
  smearing = 'cold'
/
&ELECTRONS
  conv_thr =   2.4000000000d-09
  electron_maxstep = 80
  mixing_beta =   4.0000000000d-01
/
ATOMIC_SPECIES
B      10.811 B.upf
ATOMIC_POSITIONS crystal
B            0.9896900000       0.9896900000       0.3253500000
B            0.0103100000       0.0103100000       0.6746500000
B            0.9896900000       0.3459600000       0.3253500000
B            0.0103100000       0.6540400000       0.6746500000
B            0.3459600000       0.9896900000       0.3253500000
B            0.6540400000       0.0103100000       0.6746500000
B            0.7788500000       0.7788500000       0.9272600000
B            0.2211500000       0.2211500000       0.0727400000
B            0.7788500000       0.3695700000       0.9272600000
B            0.2211500000       0.6304300000       0.0727400000
B            0.3695700000       0.7788500000       0.9272600000
B            0.6304300000       0.2211500000       0.0727400000
K_POINTS automatic
8 8 8 0 0 0
CELL_PARAMETERS angstrom
      4.2441047156      -2.4503350000       0.0000000000
      4.2441047156       2.4503350000       0.0000000000
     -2.8294003614       0.0000000000       4.1841238715
