&CONTROL
  calculation = 'scf'
  etot_conv_thr =   4.0000000000d-05
  forc_conv_thr =   1.0000000000d-04
  outdir = './out/'
  prefix = 'aiida'
  pseudo_dir = './pseudo/'
  tprnfor = .true.
  tstress = .true.
  verbosity = 'high'
/
&SYSTEM
  degauss =   1.4699728990d-02
  ecutrho =   1.8400000000d+02
  ecutwfc =   4.6000000000d+01
  ibrav = 0
  nat = 4
  nosym = .false.
  ntyp = 1
  occupations = 'smearing'
  smearing = 'cold'
/
&ELECTRONS
  conv_thr =   8.0000000000d-10
  electron_maxstep = 80
  mixing_beta =   4.0000000000d-01
/
ATOMIC_SPECIES
Br     79.904 Br.upf
ATOMIC_POSITIONS crystal
Br           0.3757400000       0.6242600000       0.8828400000
Br           0.1242600000       0.8757400000       0.3828400000
Br           0.8757400000       0.1242600000       0.6171600000
Br           0.6242600000       0.3757400000       0.1171600000
K_POINTS automatic
9 9 4 0 0 0
CELL_PARAMETERS angstrom
      4.1143000004      -2.1136550000       0.0000000000
      4.1143000004       2.1136550000       0.0000000000
      0.0000000000       0.0000000000       9.0332300000
