&CONTROL
  calculation = 'scf'
  etot_conv_thr =   2.0000000000d-05
  forc_conv_thr =   1.0000000000d-04
  outdir = './out/'
  prefix = 'aiida'
  pseudo_dir = './pseudo/'
  tprnfor = .true.
  tstress = .true.
  verbosity = 'high'
/
&SYSTEM
  degauss =   1.4699728990d-02
  ecutrho =   2.6400000000d+02
  ecutwfc =   6.6000000000d+01
  ibrav = 0
  nat = 2
  nosym = .false.
  ntyp = 1
  occupations = 'smearing'
  smearing = 'cold'
/
&ELECTRONS
  conv_thr =   4.0000000000d-10
  electron_maxstep = 80
  mixing_beta =   4.0000000000d-01
/
ATOMIC_SPECIES
Bi     208.9804 Bi.upf
ATOMIC_POSITIONS crystal
Bi           0.7662600000       0.7662600000       0.7662600000
Bi           0.2337400000       0.2337400000       0.2337400000
K_POINTS automatic
9 9 9 0 0 0
CELL_PARAMETERS angstrom
      2.2943300000       1.3246320431       4.0607433371
     -2.2943300000       1.3246320431       4.0607433371
      0.0000000000      -2.6492640862       4.0607433371
