&CONTROL
  calculation = 'scf'
  etot_conv_thr =   4.0000000000d-05
  forc_conv_thr =   1.0000000000d-04
  outdir = './out/'
  prefix = 'aiida'
  pseudo_dir = './pseudo/'
  tprnfor = .true.
  tstress = .true.
  verbosity = 'high'
/
&SYSTEM
  degauss =   1.4699728990d-02
  ecutrho =   2.8000000000d+02
  ecutwfc =   7.0000000000d+01
  ibrav = 0
  nat = 4
  nosym = .false.
  ntyp = 1
  occupations = 'smearing'
  smearing = 'cold'
/
&ELECTRONS
  conv_thr =   8.0000000000d-10
  electron_maxstep = 80
  mixing_beta =   4.0000000000d-01
/
ATOMIC_SPECIES
I      126.90447 I.upf
ATOMIC_POSITIONS crystal
I            0.6359000000       0.3641000000       0.1214300000
I            0.8641000000       0.1359000000       0.6214300000
I            0.1359000000       0.8641000000       0.3785700000
I            0.3641000000       0.6359000000       0.8785700000
K_POINTS automatic
8 8 4 0 0 0
CELL_PARAMETERS angstrom
      4.2885049974      -2.2771100000       0.0000000000
      4.2885049974       2.2771100000       0.0000000000
      0.0000000000       0.0000000000      10.1838100000
