&CONTROL
  calculation = 'scf'
  etot_conv_thr =   4.0000000000d-05
  forc_conv_thr =   1.0000000000d-04
  outdir = './out/'
  prefix = 'aiida'
  pseudo_dir = './pseudo/'
  tprnfor = .true.
  tstress = .true.
  verbosity = 'high'
/
&SYSTEM
  degauss =   1.4699728990d-02
  ecutrho =   3.2000000000d+02
  ecutwfc =   8.0000000000d+01
  ibrav = 0
  nat = 4
  nosym = .false.
  ntyp = 1
  occupations = 'smearing'
  smearing = 'cold'
/
&ELECTRONS
  conv_thr =   8.0000000000d-10
  electron_maxstep = 80
  mixing_beta =   4.0000000000d-01
/
ATOMIC_SPECIES
Ga     69.723 Ga.upf
ATOMIC_POSITIONS crystal
Ga           0.8435800000       0.1564200000       0.9188000000
Ga           0.1564200000       0.8435800000       0.0812000000
Ga           0.6564200000       0.3435800000       0.4188000000
Ga           0.3435800000       0.6564200000       0.5812000000
K_POINTS automatic
8 8 7 0 0 0
CELL_PARAMETERS angstrom
      2.2834449988      -3.8766499978       0.0000000000
      2.2834449988       3.8766499978       0.0000000000
      0.0000000000       0.0000000000       4.5997800000
