&CONTROL
  calculation = 'scf'
  etot_conv_thr =   3.0000000000d-05
  forc_conv_thr =   1.0000000000d-04
  outdir = './out/'
  prefix = 'aiida'
  pseudo_dir = './pseudo/'
  tprnfor = .true.
  tstress = .true.
  verbosity = 'high'
/
&SYSTEM
  degauss =   1.4699728990d-02
  ecutrho =   3.4400000000d+02
  ecutwfc =   8.6000000000d+01
  ibrav = 0
  nat = 3
  nosym = .false.
  ntyp = 1
  occupations = 'smearing'
  smearing = 'cold'
/
&ELECTRONS
  conv_thr =   6.0000000000d-10
  electron_maxstep = 80
  mixing_beta =   4.0000000000d-01
/
ATOMIC_SPECIES
Se     78.96 Se.upf
ATOMIC_POSITIONS crystal
Se           0.7809700000       0.7809700000       0.5000000000
Se           0.0000000000       0.2190300000       0.1666666667
Se           0.2190300000       0.0000000000       0.8333333333
K_POINTS automatic
9 9 7 0 0 0
CELL_PARAMETERS angstrom
      4.5246400000       0.0000000000       0.0000000000
     -2.2623200000       3.9184531830       0.0000000000
      0.0000000000       0.0000000000       5.0497800000
