&CONTROL
  calculation = 'scf'
  etot_conv_thr =   5.0000000000d-05
  forc_conv_thr =   1.0000000000d-04
  outdir = './out/'
  prefix = 'aiida'
  pseudo_dir = './pseudo/'
  tprnfor = .true.
  tstress = .true.
  verbosity = 'high'
/
&SYSTEM
  degauss =   1.4699728990d-02
  ecutrho =   3.3600000000d+02
  ecutwfc =   8.4000000000d+01
  ibrav = 0
  nat = 5
  nosym = .false.
  ntyp = 2
  occupations = 'smearing'
  smearing = 'cold'
/
&ELECTRONS
  conv_thr =   1.0000000000d-09
  electron_maxstep = 80
  mixing_beta =   4.0000000000d-01
/
ATOMIC_SPECIES
F      18.9984032 F.upf
Si     28.0855 Si.upf
ATOMIC_POSITIONS crystal
Si           0.0000000000       0.0000000000       0.0000000000
F           -0.0000000000       0.3144573100      -0.0000000000
F            0.3144573100       0.0000000000       0.0000000000
F            0.0000000000       0.0000000000       0.3144573100
F            0.6855426900       0.6855426900       0.6855426900
K_POINTS automatic
8 8 8 0 0 0
CELL_PARAMETERS angstrom
     -2.8919247221       2.8919247221       2.8919247221
      2.8919247221      -2.8919247221       2.8919247221
      2.8919247221       2.8919247221      -2.8919247221
