&CONTROL
   calculation      = 'scf'
   verbosity        = 'high'
   restart_mode     = 'from_scratch'
   tstress          = .true.
   tprnfor          = .true.
   outdir           = '/home/linsco_e/projects/pseudopotential_regeneration/pseudodojo_with_vconf/qe/vanilla_input_files/oxides/out/'
   prefix           = 'aiida'
   etot_conv_thr    = 2e-05
   forc_conv_thr    = 0.0001
   pseudo_dir       = '/home/linsco_e/code/koopmans/src/koopmans/pseudopotentials/pseudo_dojo_standard_v0.4.1/pbe/'
/
&SYSTEM
   ibrav            = 0
   nbnd             = 10
   tot_charge       = 0
   ecutwfc          = 84.0
   ecutrho          = 336.0
   nosym            = .false.
   occupations      = 'smearing'
   degauss          = 0.011024796742
   smearing         = 'cold'
   ntyp             = 2
   nat              = 2
/
&ELECTRONS
   electron_maxstep = 80
   conv_thr         = 4e-10
   mixing_beta      = 0.4
/
&IONS
/
&CELL
/

ATOMIC_SPECIES
Ge 72.63 Ge.upf
O 15.999 O.upf

K_POINTS automatic
16 16 16  0 0 0

CELL_PARAMETERS angstrom
2.92062092720000 0.00000000000000 1.68622127850000
0.97354030910000 2.75358781720000 1.68622127850000
0.00000000000000 0.00000000000000 3.37244255700000

ATOMIC_POSITIONS crystal
Ge 0.0000000000 0.0000000000 0.0000000000 
O 0.5000000000 0.5000000000 0.5000000000 

