&CONTROL
  calculation = 'scf'
  etot_conv_thr =   2.0000000000d-05
  forc_conv_thr =   1.0000000000d-04
  outdir = './out/'
  prefix = 'aiida'
  pseudo_dir = './pseudo/'
  tprnfor = .true.
  tstress = .true.
  verbosity = 'high'
/
&SYSTEM
  degauss =   1.4699728990d-02
  ecutrho =   3.3600000000d+02
  ecutwfc =   8.4000000000d+01
  ibrav = 0
  nat = 2
  nosym = .false.
  ntyp = 1
  occupations = 'smearing'
  smearing = 'cold'
/
&ELECTRONS
  conv_thr =   4.0000000000d-10
  electron_maxstep = 80
  mixing_beta =   4.0000000000d-01
/
ATOMIC_SPECIES
As     74.9216 As.upf
ATOMIC_POSITIONS crystal
As           0.7734300000       0.7734300000       0.7734300000
As           0.2265700000       0.2265700000       0.2265700000
K_POINTS automatic
10 10 10 0 0 0
CELL_PARAMETERS angstrom
      1.9102750000       1.1028977855       3.5965433354
     -1.9102750000       1.1028977855       3.5965433354
      0.0000000000      -2.2057955710       3.5965433354
