&CONTROL
  calculation = 'scf'
  etot_conv_thr =   4.0000000000d-05
  forc_conv_thr =   1.0000000000d-04
  outdir = './out/'
  prefix = 'aiida'
  pseudo_dir = './pseudo/'
  tprnfor = .true.
  tstress = .true.
  verbosity = 'high'
/
&SYSTEM
  degauss =   1.4699728990d-02
  ecutrho =   3.3600000000d+02
  ecutwfc =   8.4000000000d+01
  ibrav = 0
  nat = 4
  nosym = .false.
  ntyp = 1
  occupations = 'smearing'
  smearing = 'cold'
/
&ELECTRONS
  conv_thr =   8.0000000000d-10
  electron_maxstep = 80
  mixing_beta =   4.0000000000d-01
/
ATOMIC_SPECIES
F      18.9984032 F.upf
ATOMIC_POSITIONS crystal
F            0.9247000000       0.5853000000       0.0941300000
F            0.0753000000       0.4147000000       0.9058700000
F            0.4147000000       0.0753000000       0.4058700000
F            0.5853000000       0.9247000000       0.5941300000
K_POINTS automatic
10 10 5 0 0 0
CELL_PARAMETERS angstrom
      3.0815500018      -1.8425250013       0.0000000000
      3.0815500018       1.8425250013       0.0000000000
     -0.8170433939       0.0000000000       6.8770648374
