&CONTROL
  calculation = 'scf'
  etot_conv_thr =   8.0000000000d-05
  forc_conv_thr =   1.0000000000d-04
  outdir = './out/'
  prefix = 'aiida'
  pseudo_dir = './pseudo/'
  tprnfor = .true.
  tstress = .true.
  verbosity = 'high'
/
&SYSTEM
  degauss =   1.4699728990d-02
  ecutrho =   3.3600000000d+02
  ecutwfc =   8.4000000000d+01
  ibrav = 0
  nat = 8
  nosym = .false.
  ntyp = 1
  occupations = 'smearing'
  smearing = 'cold'
/
&ELECTRONS
  conv_thr =   1.6000000000d-09
  electron_maxstep = 80
  mixing_beta =   4.0000000000d-01
/
ATOMIC_SPECIES
N      14.0067 N.upf
ATOMIC_POSITIONS crystal
N            0.0518900000       0.0518900000       0.0518900000
N            0.9481100000       0.9481100000       0.9481100000
N            0.4481100000       0.9481100000       0.5518900000
N            0.5518900000       0.0518900000       0.4481100000
N            0.9481100000       0.5518900000       0.4481100000
N            0.0518900000       0.4481100000       0.5518900000
N            0.5518900000       0.4481100000       0.9481100000
N            0.4481100000       0.5518900000       0.0518900000
K_POINTS automatic
6 6 6 0 0 0
CELL_PARAMETERS angstrom
      6.1901900000       0.0000000000       0.0000000000
      0.0000000000       6.1901900000       0.0000000000
      0.0000000000       0.0000000000       6.1901900000
