&CONTROL
  calculation = 'scf'
  etot_conv_thr =   3.0000000000d-05
  forc_conv_thr =   1.0000000000d-04
  outdir = './out/'
  prefix = 'aiida'
  pseudo_dir = './pseudo/'
  tprnfor = .true.
  tstress = .true.
  verbosity = 'high'
/
&SYSTEM
  degauss =   1.4699728990d-02
  ecutrho =   3.5200000000d+02
  ecutwfc =   8.8000000000d+01
  ibrav = 0
  nat = 3
  nosym = .false.
  ntyp = 1
  occupations = 'smearing'
  smearing = 'cold'
/
&ELECTRONS
  conv_thr =   6.0000000000d-10
  electron_maxstep = 80
  mixing_beta =   4.0000000000d-01
/
ATOMIC_SPECIES
Na     22.98977 Na.upf
ATOMIC_POSITIONS crystal
Na          -0.0000000000       0.0000000000       0.0000000000
Na           0.7777800000       0.7777800000       0.7777800000
Na           0.2222200000       0.2222200000       0.2222200000
K_POINTS automatic
10 10 10 0 0 0
CELL_PARAMETERS angstrom
      1.8713930850       1.0804493014       9.1668800539
     -1.8713930850       1.0804493014       9.1668800539
      0.0000000000      -2.1608986028       9.1668800539
