&CONTROL
  calculation = 'scf'
  etot_conv_thr =   2.0000000000d-05
  forc_conv_thr =   1.0000000000d-04
  outdir = './out/'
  prefix = 'aiida'
  pseudo_dir = './pseudo/'
  tprnfor = .true.
  tstress = .true.
  verbosity = 'high'
/
&SYSTEM
  degauss =   1.4699728990d-02
  ecutrho =   3.3600000000d+02
  ecutwfc =   8.4000000000d+01
  ibrav = 0
  nat = 2
  nosym = .false.
  ntyp = 1
  occupations = 'smearing'
  smearing = 'cold'
/
&ELECTRONS
  conv_thr =   4.0000000000d-10
  electron_maxstep = 80
  mixing_beta =   4.0000000000d-01
/
ATOMIC_SPECIES
O      15.9994 O.upf
ATOMIC_POSITIONS crystal
O            0.9378200000       0.9378200000       0.8533300000
O            0.0621800000       0.0621800000       0.1466700000
K_POINTS automatic
11 11 8 0 0 0
CELL_PARAMETERS angstrom
      2.1358150000      -2.1384100000       0.0000000000
      2.1358150000       2.1384100000       0.0000000000
     -1.8066688219       0.0000000000       4.1993305608
