&CONTROL
  calculation = 'scf'
  etot_conv_thr =   4.0000000000d-05
  forc_conv_thr =   1.0000000000d-04
  outdir = './out/'
  prefix = 'aiida'
  pseudo_dir = './pseudo/'
  tprnfor = .true.
  tstress = .true.
  verbosity = 'high'
/
&SYSTEM
  degauss =   1.4699728990d-02
  ecutrho =   1.7600000000d+02
  ecutwfc =   4.4000000000d+01
  ibrav = 0
  nat = 4
  nosym = .false.
  ntyp = 1
  occupations = 'smearing'
  smearing = 'cold'
/
&ELECTRONS
  conv_thr =   8.0000000000d-10
  electron_maxstep = 80
  mixing_beta =   4.0000000000d-01
/
ATOMIC_SPECIES
P      30.973761 P.upf
ATOMIC_POSITIONS crystal
P            0.9064300000       0.0935700000       0.9128100000
P            0.0935700000       0.9064300000       0.0871900000
P            0.5935700000       0.4064300000       0.4128100000
P            0.4064300000       0.5935700000       0.5871900000
K_POINTS automatic
10 10 7 0 0 0
CELL_PARAMETERS angstrom
      1.6523300000      -5.6584700048       0.0000000000
      1.6523300000       5.6584700048       0.0000000000
      0.0000000000       0.0000000000       4.5732700000
