&CONTROL
  calculation = 'scf'
  etot_conv_thr =   3.0000000000d-05
  forc_conv_thr =   1.0000000000d-04
  outdir = './out/'
  prefix = 'aiida'
  pseudo_dir = './pseudo/'
  tprnfor = .true.
  tstress = .true.
  verbosity = 'high'
/
&SYSTEM
  degauss =   1.4699728990d-02
  ecutrho =   3.2000000000d+02
  ecutwfc =   8.0000000000d+01
  ibrav = 0
  nat = 3
  nosym = .false.
  ntyp = 1
  occupations = 'smearing'
  smearing = 'cold'
/
&ELECTRONS
  conv_thr =   6.0000000000d-10
  electron_maxstep = 80
  mixing_beta =   4.0000000000d-01
/
ATOMIC_SPECIES
Te     127.6 Te.upf
ATOMIC_POSITIONS crystal
Te           0.7303400000       0.7303400000       0.5000000000
Te          -0.0000000000       0.2696600000       0.1666666667
Te           0.2696600000       0.0000000000       0.8333333333
K_POINTS automatic
9 9 6 0 0 0
CELL_PARAMETERS angstrom
      4.5078800000       0.0000000000       0.0000000000
     -2.2539400000       3.9039385972       0.0000000000
      0.0000000000       0.0000000000       5.9634600000
