&CONTROL
  calculation = 'scf'
  etot_conv_thr =   2.0000000000d-05
  forc_conv_thr =   1.0000000000d-04
  outdir = './out/'
  prefix = 'aiida'
  pseudo_dir = './pseudo/'
  tprnfor = .true.
  tstress = .true.
  verbosity = 'high'
/
&SYSTEM
  degauss =   1.4699728990d-02
  ecutrho =   3.5200000000d+02
  ecutwfc =   8.8000000000d+01
  ibrav = 0
  nat = 2
  nosym = .false.
  ntyp = 1
  occupations = 'smearing'
  smearing = 'cold'
/
&ELECTRONS
  conv_thr =   4.0000000000d-10
  electron_maxstep = 80
  mixing_beta =   4.0000000000d-01
/
ATOMIC_SPECIES
Be     9.012182 Be.upf
ATOMIC_POSITIONS crystal
Be           0.5000000000       0.5000000000       0.5000000000
Be           0.7500000000       0.7500000000       0.7500000000
K_POINTS automatic
12 12 12 0 0 0
CELL_PARAMETERS angstrom
      0.0000000000       2.4490767773       2.4490767773
      2.4490767773       0.0000000000       2.4490767773
      2.4490767773       2.4490767773       0.0000000000
