&CONTROL
  calculation = 'scf'
  etot_conv_thr =   1.0000000000d-05
  forc_conv_thr =   1.0000000000d-04
  outdir = './out/'
  prefix = 'aiida'
  pseudo_dir = './pseudo/'
  tprnfor = .true.
  tstress = .true.
  verbosity = 'high'
/
&SYSTEM
  degauss =   1.4699728990d-02
  ecutrho =   3.2800000000d+02
  ecutwfc =   8.2000000000d+01
  ibrav = 0
  nat = 1
  nosym = .false.
  ntyp = 1
  occupations = 'smearing'
  smearing = 'cold'
/
&ELECTRONS
  conv_thr =   2.0000000000d-10
  electron_maxstep = 80
  mixing_beta =   4.0000000000d-01
/
ATOMIC_SPECIES
C      12.0107 C.upf
ATOMIC_POSITIONS crystal
C            0.0000000000       0.0000000000       0.0000000000
K_POINTS automatic
18 18 18 0 0 0
CELL_PARAMETERS angstrom
      0.0000000000       1.5407391189       1.5407391189
      1.5407391189       0.0000000000       1.5407391189
      1.5407391189       1.5407391189       0.0000000000
