&CONTROL
  calculation = 'scf'
  etot_conv_thr =   2.0000000000d-05
  forc_conv_thr =   1.0000000000d-04
  outdir = './out/'
  prefix = 'aiida'
  pseudo_dir = './pseudo/'
  tprnfor = .true.
  tstress = .true.
  verbosity = 'high'
/
&SYSTEM
  degauss =   1.4699728990d-02
  ecutrho =   2.7200000000d+02
  ecutwfc =   6.8000000000d+01
  ibrav = 0
  nat = 2
  nosym = .false.
  ntyp = 1
  occupations = 'smearing'
  smearing = 'cold'
/
&ELECTRONS
  conv_thr =   4.0000000000d-10
  electron_maxstep = 80
  mixing_beta =   4.0000000000d-01
/
ATOMIC_SPECIES
Ne     20.1797 Ne.upf
ATOMIC_POSITIONS crystal
Ne           0.5000000000       0.5000000000       0.5000000000
Ne           0.7500000000       0.7500000000       0.7500000000
K_POINTS automatic
8 8 8 0 0 0
CELL_PARAMETERS angstrom
      0.0000000000       3.5449905945       3.5449905945
      3.5449905945       0.0000000000       3.5449905945
      3.5449905945       3.5449905945       0.0000000000
